p tw 677 1425
0 1
0 462
0 478
1 22
1 23
2 3
2 4
2 217
2 589
3 4
3 217
3 218
4 218
4 239
5 6
5 7
5 161
5 428
6 7
6 160
6 427
7 160
7 161
8 9
8 10
8 128
8 280
9 10
9 280
9 613
9 578
9 632
10 128
10 613
11 12
11 13
11 400
11 399
12 13
12 620
13 274
13 304
13 305
13 400
14 15
14 120
14 328
14 590
15 99
15 282
15 283
16 17
16 18
16 32
16 149
17 18
17 32
17 150
17 119
17 516
18 464
19 20
19 21
19 536
19 423
19 392
19 396
20 21
20 536
20 424
21 609
22 23
22 213
22 34
22 323
22 324
23 33
23 213
24 25
24 26
24 261
24 293
25 26
25 91
25 98
26 91
26 293
27 28
27 29
27 301
27 671
28 29
28 427
29 300
29 301
29 228
29 556
30 31
30 353
30 600
31 264
31 265
32 149
32 150
33 34
33 35
33 213
34 35
34 323
34 324
34 213
35 342
36 37
36 38
36 168
37 38
37 52
37 53
37 54
37 235
38 235
38 420
39 40
39 41
39 42
39 124
39 332
39 359
40 41
40 42
40 124
40 529
40 530
41 42
41 634
42 543
43 44
43 45
43 88
43 157
44 45
44 157
44 623
45 88
45 667
46 47
46 48
46 172
46 223
46 602
46 630
47 48
47 484
48 172
48 339
49 50
49 51
49 55
49 214
49 215
49 216
50 51
50 292
51 55
51 330
52 53
52 54
52 657
53 54
53 235
53 420
53 421
54 87
55 330
55 216
56 57
56 58
56 444
56 607
57 58
57 444
57 619
57 582
57 676
58 607
58 547
58 582
58 676
59 60
59 366
59 367
60 450
60 470
61 62
61 63
61 222
61 354
61 541
61 238
62 63
62 535
62 238
63 222
63 535
64 65
64 66
64 189
64 190
64 191
64 564
65 66
65 357
65 564
66 532
67 68
67 69
67 455
67 456
67 133
67 597
68 69
68 456
68 499
69 259
70 71
70 72
70 73
70 175
71 72
71 73
71 492
71 497
71 494
72 73
72 378
73 493
73 605
73 494
74 75
74 76
74 286
74 287
75 76
75 286
75 413
75 641
75 473
76 287
76 413
76 641
76 646
77 78
77 79
77 559
77 211
78 79
78 288
78 289
78 290
78 211
79 288
79 559
80 81
80 82
80 345
80 553
81 82
81 185
81 345
81 127
81 551
82 185
82 553
83 84
83 85
83 86
83 491
83 501
83 393
84 85
84 86
84 95
84 96
84 393
85 86
85 127
86 176
87 205
87 272
87 502
88 157
88 431
88 580
88 667
89 90
89 245
89 550
90 351
90 601
91 293
91 98
91 295
91 656
92 93
92 94
92 208
92 209
92 210
92 621
93 94
93 209
93 385
94 385
94 621
95 96
95 393
95 501
96 451
97 98
97 468
97 534
99 100
99 101
99 282
99 283
99 429
100 101
100 579
101 429
101 430
102 103
102 104
102 291
102 434
103 104
103 434
103 438
103 439
103 566
104 291
104 566
105 106
105 107
105 627
105 410
105 459
105 557
106 107
106 627
106 640
107 410
107 640
108 109
108 600
108 601
108 649
109 264
109 397
109 453
110 111
110 112
110 276
110 358
111 112
111 358
111 382
112 382
112 666
113 114
113 115
113 299
113 636
114 115
114 299
114 510
115 285
115 509
115 510
115 636
116 117
116 118
116 219
116 614
117 118
117 614
117 546
117 581
117 674
118 219
118 377
118 581
118 674
119 120
119 150
119 516
120 328
120 590
121 122
121 123
121 433
121 512
122 123
122 433
122 663
122 221
122 528
123 512
123 663
124 332
124 529
125 126
125 495
125 496
126 173
126 174
127 185
127 551
128 280
128 281
129 130
129 131
129 343
130 131
130 416
130 549
131 415
131 549
131 611
131 652
132 133
132 226
132 348
132 349
133 455
133 597
134 135
134 136
134 137
134 578
135 136
135 137
135 436
135 437
135 504
136 137
136 210
137 533
137 537
137 437
138 139
138 140
138 187
138 673
139 140
139 186
139 263
140 186
140 187
141 142
141 143
141 168
141 519
142 143
142 168
142 603
142 575
142 657
143 519
143 603
144 145
144 146
144 250
144 670
145 146
145 250
145 251
146 251
146 513
146 647
146 670
147 148
147 277
147 515
148 149
148 150
149 150
150 516
151 152
151 153
151 188
152 153
152 314
152 463
152 572
152 573
153 314
153 554
154 155
154 156
154 258
154 363
155 156
155 313
155 363
156 258
156 313
156 386
156 387
157 431
157 580
157 623
158 159
158 309
158 654
159 204
159 294
160 161
160 427
160 227
160 418
161 428
161 227
161 418
162 163
162 164
162 341
162 342
163 164
163 642
163 593
164 341
164 642
165 166
165 167
165 383
165 384
165 507
165 508
166 167
166 435
167 384
167 648
169 170
169 171
169 624
169 577
169 629
169 662
170 171
170 350
170 624
171 350
171 662
172 223
172 339
173 174
173 445
173 296
173 467
173 468
174 445
174 534
175 176
175 177
175 178
176 177
176 178
177 178
177 521
177 576
177 451
178 520
178 521
178 498
179 180
179 181
179 253
179 465
179 412
179 599
180 181
180 465
180 252
181 673
182 183
182 184
182 478
182 322
182 426
182 653
183 184
183 462
183 478
184 462
184 653
185 553
185 532
185 551
186 187
186 337
186 338
186 263
187 337
187 338
187 673
188 441
188 442
189 190
189 191
189 356
189 357
189 564
190 191
190 551
191 459
192 193
192 194
192 195
192 572
193 194
193 195
193 346
193 347
193 651
194 195
194 652
195 343
195 344
195 347
196 197
196 198
196 268
196 544
196 610
196 267
197 198
197 268
197 588
198 587
198 588
198 544
198 610
199 200
199 201
199 579
199 368
199 496
199 635
200 201
200 495
200 496
201 579
201 495
202 203
202 204
202 236
202 294
203 204
203 236
203 570
203 432
203 638
204 294
204 432
204 638
205 206
205 207
205 272
205 502
205 655
206 207
206 272
206 637
207 637
207 655
208 209
208 210
208 438
209 210
209 385
209 612
211 212
212 223
212 339
214 215
214 216
214 322
215 216
215 379
216 330
216 331
217 218
217 589
217 548
217 659
218 239
218 548
218 659
219 377
219 614
220 221
220 391
220 477
220 583
221 433
221 528
222 404
222 535
222 354
222 541
223 339
223 602
223 630
224 225
224 226
224 591
225 226
225 561
225 562
226 348
226 349
226 561
227 228
227 418
228 300
228 556
229 230
229 231
229 336
229 567
230 231
230 336
230 425
230 542
230 543
231 530
232 233
232 234
232 246
232 277
233 234
233 277
233 515
234 246
234 485
234 514
234 515
235 420
236 294
236 570
237 238
237 297
237 298
239 377
240 241
240 242
240 636
241 242
241 394
241 395
242 279
242 284
242 414
242 394
243 244
243 245
243 320
243 321
243 260
243 505
244 245
244 505
244 550
245 320
245 321
245 550
246 454
247 248
247 249
247 270
247 269
247 378
247 466
248 249
248 270
248 271
249 605
250 251
250 643
251 513
251 647
251 643
252 253
252 254
252 465
253 254
253 465
253 412
253 599
254 646
255 256
255 257
255 539
255 626
256 257
256 479
256 480
256 626
256 650
257 479
257 480
257 538
257 539
258 650
259 448
259 469
260 261
260 505
261 293
262 263
262 380
262 381
264 265
264 452
264 453
264 397
265 452
265 608
266 267
266 615
266 625
267 268
268 588
269 270
269 271
269 409
269 378
269 466
270 271
271 409
272 502
272 637
272 586
273 274
274 304
274 305
275 276
275 488
275 511
276 358
277 515
278 279
278 334
278 379
278 460
279 284
279 414
280 281
280 578
280 632
281 563
282 283
282 368
283 429
283 430
283 645
284 285
284 414
285 509
285 510
286 287
286 473
287 646
288 289
288 290
288 558
288 559
289 290
289 418
290 602
291 434
291 454
292 460
292 461
293 295
293 656
295 296
295 656
296 467
296 468
297 298
297 319
297 569
297 355
297 617
298 319
298 568
299 474
299 510
300 301
300 556
300 671
300 411
301 671
302 303
302 388
302 405
302 522
303 376
303 407
303 574
304 305
304 500
305 399
305 400
305 660
306 307
306 308
306 309
306 638
307 308
307 309
307 595
307 596
307 622
308 309
309 654
309 596
310 311
310 312
310 371
310 606
311 312
311 340
311 531
312 340
312 371
313 363
313 364
313 386
313 387
314 463
314 554
315 316
315 317
315 318
315 676
316 317
316 318
316 326
316 552
316 661
317 318
317 580
318 325
318 326
318 618
319 568
319 569
320 321
320 649
321 656
322 426
322 478
323 324
323 426
324 668
325 326
325 552
325 618
326 552
327 328
327 329
327 401
327 402
328 329
328 401
328 590
329 645
330 331
331 653
332 359
332 529
333 334
333 335
333 461
333 369
334 335
334 379
334 460
334 369
335 460
335 461
336 425
336 567
337 338
337 633
338 599
340 371
340 372
340 373
340 531
341 342
341 642
341 668
341 669
343 344
344 346
344 347
345 491
346 347
346 651
348 349
348 561
348 562
348 408
349 466
350 624
350 675
351 352
351 353
351 601
352 353
352 600
352 601
353 600
354 355
354 541
355 569
355 617
356 357
356 639
357 564
358 382
358 457
358 500
359 560
360 361
360 362
360 655
361 362
361 380
361 419
361 592
361 633
362 419
362 381
363 364
364 593
365 366
365 367
365 446
365 447
366 367
366 446
366 486
366 487
367 447
368 496
368 635
369 370
370 395
370 414
371 372
371 373
371 606
372 373
372 577
373 548
374 375
374 376
374 406
374 571
375 376
375 538
376 406
376 407
376 574
378 466
379 460
380 381
380 419
380 592
380 633
381 419
382 457
382 500
382 666
383 384
383 507
383 508
383 527
383 648
384 648
385 612
386 387
386 669
387 479
388 389
388 390
388 398
388 405
388 522
389 390
389 398
389 440
390 616
391 392
391 477
391 583
392 396
392 423
393 501
394 395
394 414
395 414
396 397
396 423
397 453
398 405
398 440
399 400
399 660
401 402
401 590
402 464
402 590
403 404
403 519
403 603
404 535
405 522
405 440
405 563
406 407
406 571
407 571
407 616
407 574
408 409
408 562
410 411
411 671
412 413
412 599
413 641
415 416
415 417
415 549
415 611
415 652
416 417
416 549
417 587
420 421
421 586
422 423
422 424
422 665
423 424
423 536
424 536
425 542
425 543
425 567
425 435
426 478
428 558
429 430
430 645
431 432
431 580
432 638
433 512
433 540
433 528
434 438
434 439
434 454
435 567
436 437
436 504
436 533
437 533
438 439
439 485
440 563
441 442
441 443
441 506
441 517
441 518
442 443
442 503
443 503
443 506
444 607
444 619
445 468
445 534
446 447
446 486
446 487
446 565
447 565
448 449
448 450
448 469
449 450
449 469
449 470
450 470
451 576
452 453
452 608
453 608
453 609
455 456
455 597
455 499
455 591
456 499
457 458
457 500
458 488
458 489
458 672
459 557
459 627
460 461
462 478
463 554
463 572
463 573
463 658
464 590
467 468
467 635
468 534
469 470
469 471
469 472
470 471
470 472
471 472
471 597
472 487
473 474
474 510
475 476
475 477
475 540
476 477
476 481
476 664
477 481
477 583
479 480
480 574
481 664
481 583
482 483
482 484
482 584
482 585
483 484
483 598
483 631
483 634
483 585
485 514
485 515
486 487
486 513
488 489
488 490
488 511
488 672
489 490
489 526
489 604
489 672
490 511
490 604
491 501
492 493
492 494
492 497
493 494
493 605
495 496
496 635
497 498
498 520
499 591
502 592
503 506
503 555
504 612
505 550
506 517
506 518
506 555
507 508
507 672
508 542
509 510
509 641
511 604
512 540
513 647
514 515
514 516
517 518
517 528
518 573
519 603
520 521
520 576
521 576
522 632
523 524
523 525
523 594
523 625
524 525
524 594
524 615
524 545
524 628
525 675
526 527
526 604
527 648
529 530
531 589
532 553
533 537
537 613
538 539
539 626
541 575
542 543
544 545
544 610
545 615
545 628
546 547
546 614
547 607
548 659
552 661
554 658
555 663
556 557
557 627
558 559
560 584
560 598
561 562
565 670
566 621
568 569
568 644
569 617
569 644
570 667
571 616
572 573
575 603
575 657
577 624
577 629
578 632
581 582
581 674
582 676
583 664
583 665
584 585
584 598
585 598
586 637
587 588
592 633
593 642
594 615
594 625
595 596
595 622
595 654
596 654
598 631
598 634
600 601
600 649
601 649
602 630
603 657
606 662
608 609
610 611
611 652
615 625
615 628
617 647
618 619
623 661
624 629
624 675
626 650
627 639
627 640
628 629
630 631
631 634
639 640
642 668
642 669
643 644
651 658
659 674
660 666
664 665
668 669
